HFSDDW
20	4	2
0	23	1	46
0	10	1	49
0	97	1	89
0	24	1	97
0	10	1	53
0	11	1	12
0	1	1	80
0	34	1	28
0	15	1	17
0	93	1	3
0	78	1	51
0	90	1	18
0	10	1	94
0	99	1	54
0	37	1	66
0	68	1	84
0	71	1	75
0	14	1	8
0	12	1	7
0	32	1	22
LBCmax: 482
RELDUE
-1	376	9	7
-1	149	6	4
-1	177	8	3
-1	226	4	3
-1	130	7	3
-1	216	2	1
-1	189	8	7
-1	486	4	6
-1	463	3	5
-1	313	1	7
-1	438	6	1
-1	113	7	8
-1	452	8	5
-1	475	1	8
-1	412	1	4
-1	395	5	2
-1	316	7	3
-1	494	3	9
-1	235	6	8
-1	59	5	9
DDW
338	414
148	150
172	182
212	240
125	135
199	233
183	195
476	496
435	491
307	319
416	460
112	114
407	497
442	508
396	428
359	431
313	319
454	534
221	249
57	61
